
  12    4
  10   10   10   10

   0   0   0   0   0   3 2 4 5 
   4  10  10  10  10   1 3 
   7  10  10  10  10   4 10 9 7 6 
   3  10  10  10  10   4 11 10 9 8 
   5  10  10  10  10   3 10 9 8 
   2  10  10  10  10   1 11 
   8  10  10  10  10   1 8 
   8  10  10  10  10   1 12
   2  10  10  10  10   1 12
   1  10  10  10  10   1 12
   2  10  10  10  10   1 12
   0   0   0   0   0   0 
